c turning on binary mode checking
c parsing input formula with 202048 variables and 780985 clauses
c finished parsing, read 23327962 bytes from proof file
c detected empty clause; start verification via backward checking
c 35559 of 780985 clauses in core                            
c 58691 of 543154 lemmas in core using 528086 resolution steps
c 0 RAT lemmas in core; 6015 redundant literals in core lemmas
s VERIFIED
c verification time: 3.642 seconds
